! Solving for graph ../../../benchmarks/linear/Q-494_bus.mtx.rnd
! Target value is set to 330
 ! --------------------------------------------------- CP Optimizer 22.2.0.0 --
 ! Minimization problem - 495 variables, 1080 constraints, 1 phase
 ! TimeLimit            = 1800
 ! LogVerbosity         = Terse
 ! Initial process time : 0.02s (0.02s extraction + 0.00s propagation)
 !  . Log search space  : 4719.0 (before), 4719.0 (after)
 !  . Memory usage      : 723.5 kB (before), 723.5 kB (after)
 ! Using parallel search with 8 workers.
 ! ----------------------------------------------------------------------------
 !          Best Branches  Non-fixed    W       Branch decision
                        0        495                 -
 + New bound is 1
                        0        495    1   F        -
 + New bound is 331
                        2        494    1   F     1 != _int57
 + New bound is 332
 *           661      486  0.18s        1      (gap is 49.77%)
             661     8862        495    7   F   145 != _int149
 + New bound is 497 (gap is 24.81%)
             661    16539        495    1            -
 + New bound is 661 (gap is 0.00%)
 ! ----------------------------------------------------------------------------
 ! Search completed, 1 solution found.
 ! Best objective         : 661 (optimal - effective tol. is 0)
 ! Best bound             : 661
 ! ----------------------------------------------------------------------------
 ! Number of branches     : 245067
 ! Number of fails        : 121549
 ! Total memory usage     : 51.8 MB (51.5 MB CP Optimizer + 0.4 MB Concert)
 ! Time spent in solve    : 1.93s (1.92s engine + 0.02s extraction)
 ! Search speed (br. / s) : 127639.1
 ! ----------------------------------------------------------------------------
! --------------------------------------------------------
! Best span = 661
! Labeling: 1 1 331 331 1 1 331 1 1 331 331 1 1 331 661 1 1 331 1 331 331 1 1 1 331 1 1 1 1 331 331 1 1 1 331 331 661 331 1 331 1 331 331 1 331 1 1 331 331 331 1 1 1 1 331 331 1 1 331 1 331 331 331 1 331 331 331 1 331 331 331 331 331 331 1 1 1 331 331 1 331 661 1 331 1 1 1 661 661 1 331 331 1 661 331 1 1 331 661 331 331 1 331 1 331 661 331 331 331 331 331 331 331 1 1 331 331 1 1 331 1 1 1 661 331 661 1 1 1 661 1 1 1 661 1 331 1 1 1 331 331 331 1 331 331 331 331 331 331 1 331 331 331 331 331 1 331 331 1 331 331 1 331 331 331 1 331 661 331 331 1 331 331 1 1 331 1 1 1 331 1 1 661 1 1 331 331 331 331 1 1 1 1 1 1 331 331 331 1 331 1 1 1 331 1 1 331 1 331 331 331 661 1 331 661 1 1 1 331 1 331 1 331 331 1 1 331 1 1 661 1 1 1 661 331 331 331 1 331 331 1 331 1 331 1 1 1 1 1 331 331 1 331 1 1 331 1 331 1 331 1 331 661 331 331 331 1 331 331 661 331 331 331 331 661 1 331 331 1 331 331 1 331 331 661 1 1 1 1 331 1 331 661 1 1 1 331 1 331 331 331 1 661 331 1 331 331 331 1 331 661 1 1 1 1 661 1 1 1 1 331 1 331 331 331 1 331 1 331 1 1 331 1 331 1 331 331 1 331 331 1 1 331 1 1 1 1 331 1 1 661 1 1 1 1 331 1 331 1 1 1 331 1 331 1 1 331 1 331 1 1 1 1 331 331 1 1 1 1 1 331 1 1 1 331 331 1 331 1 331 1 1 331 1 661 1 331 661 331 331 331 1 331 331 331 1 331 1 331 1 1 331 1 331 1 331 1 331 1 1 331 1 331 1 331 661 331 331 331 331 331 661 661 661 1 331 1 331 1 1 1 1 1 1 1 331 1 331 1 331 331 331 331 1 1 331 331 661 331 331 1 331 1 1 331 331 1 331 331 661 1 1 1 331 331 661 1 331 331 331 331 331 1 1 1 1 1 1 331 331 331 1 1 331 
! -------------------------------------------------------- 
